11111111111111111111111
10100000100000100000001
10101011101111101110111
10001010001000001000001
10111010101011101111111
10101000100000100010001
11101010111110111111101
10000010001010000000001
11111111111010111111101
10100000000000000010001
10101110101110101110111
10101000101000101000101
10101111111111101110101
10101010000010101010001
10101010111110111010111
10000000101000001000001
11111011101011111011111
10001000000000100000001
10111011101110111011101
10100000100010001000101
10101111111111111011111
10000000100000000000001
11111111111111111111111
